c Sudoku solution
p cnf 729 0
122 0
133 0
164 0
339 0
348 0
353 0
384 0
447 0
488 0
491 0
515 0
558 0
574 0
628 0
666 0
742 0
781 0
811 0
825 0
235 0
899 0
929 0
932 0
943 0
975 0
998 0
794 0
317 0
868 0
738 0
118 0
278 0
412 0
619 0
713 0
214 0
916 0
834 0
727 0
776 0
987 0
846 0
857 0
954 0
961 0
424 0
523 0
436 0
463 0
479 0
455 0
644 0
145 0
395 0
256 0
221 0
326 0
249 0
541 0
652 0
569 0
537 0
631 0
151 0
362 0
267 0
371 0
759 0
765 0
872 0
883 0
673 0
177 0
196 0
189 0
282 0
293 0
586 0
592 0
685 0
697 0
